sat
(
  (define-fun G () String
    "")
  (define-fun I () String
    "aaaa")
  (define-fun J () String
    "b")
  (define-fun F () String
    "")
  (define-fun M () String
    "")
  (define-fun H () String
    "aaaaaaab")
  (define-fun N () String
    "abbbaa")
)
